NAME : A-n37-k5
COMMENT : (Augerat et al, Min no of trucks: 5, Optimal value: 669)
TYPE : CVRP
DIMENSION : 37
EDGE_WEIGHT_TYPE : EUC_2D 
CAPACITY : 100
NODE_COORD_SECTION 
 1 38 46
 2 59 46
 3 96 42
 4 47 61
 5 26 15
 6 66 6
 7 96 7
 8 37 25
 9 68 92
 10 78 84
 11 82 28
 12 93 90
 13 74 42
 14 60 20
 15 78 58
 16 36 48
 17 45 36
 18 73 57
 19 10 91
 20 98 51
 21 92 62
 22 43 42
 23 53 25
 24 78 65
 25 72 79
 26 37 88
 27 16 73
 28 75 96
 29 11 66
 30 9 49
 31 25 72
 32 8 68
 33 12 61
 34 50 2
 35 26 54
 36 18 89
 37 22 53
DEMAND_SECTION 
1 0 
2 16 
3 18 
4 1 
5 13 
6 8 
7 23 
8 7 
9 27 
10 1 
11 3 
12 6 
13 24 
14 19 
15 2 
16 5 
17 16 
18 7 
19 4 
20 22 
21 7 
22 23 
23 16 
24 2 
25 2 
26 9 
27 2 
28 12 
29 1 
30 9 
31 23 
32 6 
33 19 
34 7 
35 7 
36 20 
37 20 
DEPOT_SECTION 
 1  
 -1  
EOF 
